60
3 0 1
3 1 2
4 0 1
4 3 1
5 0 1
5 4 1
6 0 2
6 1 1
6 3 2
6 4 1
7 0 2
7 4 2
8 2 1
8 4 1
8 7 1
9 0 1
9 1 1
9 3 1
9 6 1
9 7 1
9 8 1
10 0 2
10 1 1
10 4 1
10 5 2
10 6 2
10 7 1
10 9 2
11 1 1
11 4 1
11 9 1
12 5 2
12 10 2
13 1 2
13 2 2
13 3 1
13 4 2
13 5 1
13 8 2
13 12 2
14 3 1
14 6 2
14 7 2
14 12 1
14 13 1
15 0 1
15 4 2
15 5 2
15 6 2
15 7 1
15 10 1
15 14 2
16 2 2
16 4 1
16 5 2
16 6 2
16 8 2
16 10 1
16 11 1
16 12 2
16 13 1
16 14 2
16 15 1
17 0 2
17 1 1
17 3 1
17 5 2
17 6 1
17 8 1
17 9 1
17 10 1
17 13 2
17 14 1
18 3 1
18 4 2
18 5 2
18 12 1
18 13 2
18 14 1
18 15 2
18 16 1
18 17 2
19 1 1
19 2 2
19 3 2
19 5 1
19 6 2
19 10 2
19 11 1
19 12 1
19 14 1
19 18 1
20 0 1
20 1 2
20 5 1
20 6 1
20 9 1
20 11 2
20 17 1
20 18 2
21 0 1
21 2 2
21 6 2
21 7 1
21 8 1
21 11 1
21 17 2
21 18 2
21 19 2
21 20 1
22 1 1
22 2 1
22 5 2
22 6 1
22 7 1
22 8 2
22 9 2
22 10 1
22 12 2
22 15 2
22 18 1
22 19 2
22 20 2
22 21 2
23 0 2
23 1 2
23 6 1
23 7 2
23 8 2
23 9 2
23 10 2
23 11 2
23 12 1
23 13 2
23 17 2
23 18 2
23 19 2
23 20 1
23 21 1
24 3 2
24 5 2
24 6 2
24 10 2
24 12 2
24 15 2
24 17 2
24 18 2
24 19 1
24 20 1
24 22 2
24 23 1
25 1 1
25 2 2
25 3 1
25 5 2
25 6 1
25 7 1
25 11 1
25 12 2
25 13 2
25 15 2
25 19 2
25 20 1
25 22 1
25 23 2
25 24 2
26 1 1
26 2 1
26 3 1
26 6 2
26 7 1
26 11 2
26 16 1
26 17 1
26 20 2
26 21 1
26 23 1
27 1 2
27 2 1
27 5 1
27 6 1
27 7 2
27 9 2
27 10 1
27 12 1
27 14 1
27 19 2
27 21 2
27 23 2
27 25 2
28 0 1
28 1 2
28 2 1
28 3 1
28 4 1
28 6 1
28 9 2
28 11 1
28 12 2
28 13 1
28 16 1
28 18 2
28 19 2
28 20 1
28 22 2
28 26 1
28 27 2
29 1 2
29 2 1
29 6 1
29 8 1
29 10 1
29 11 2
29 13 1
29 16 2
29 19 2
29 25 2
29 27 2
30 1 2
30 6 2
30 9 1
30 10 2
30 14 1
30 15 2
30 17 2
30 18 1
30 21 2
30 22 1
30 24 2
30 25 2
30 26 2
30 27 1
30 28 1
31 1 2
31 2 1
31 3 2
31 7 2
31 8 1
31 11 2
31 12 1
31 13 1
31 16 2
31 17 1
31 19 1
31 22 2
31 26 1
31 30 1
32 1 1
32 2 2
32 3 2
32 4 2
32 5 2
32 7 1
32 8 2
32 9 1
32 16 2
32 17 1
32 19 2
32 21 1
32 23 1
32 24 1
32 25 1
32 26 1
32 27 1
32 28 1
32 29 1
32 30 2
32 31 1
33 0 1
33 2 2
33 5 1
33 10 2
33 13 1
33 14 2
33 15 2
33 16 1
33 18 2
33 20 1
33 22 1
33 23 1
33 25 1
33 29 1
33 30 1
33 31 2
33 32 1
34 0 1
34 1 1
34 2 1
34 3 2
34 4 2
34 5 1
34 7 2
34 9 1
34 11 1
34 13 1
34 15 2
34 16 2
34 18 1
34 22 2
34 26 2
34 28 1
34 31 1
34 33 1
35 1 1
35 2 1
35 3 2
35 5 2
35 7 2
35 8 2
35 9 1
35 12 2
35 15 2
35 17 2
35 23 2
35 24 2
35 25 1
35 26 2
35 27 1
35 28 1
35 29 1
35 31 2
36 5 2
36 6 1
36 7 1
36 8 1
36 9 2
36 10 2
36 18 2
36 19 1
36 20 2
36 21 2
36 22 2
36 23 1
36 25 2
36 27 2
36 29 1
36 31 2
36 33 1
37 2 1
37 3 1
37 4 1
37 7 1
37 11 1
37 12 1
37 13 1
37 14 2
37 16 1
37 18 2
37 21 2
37 22 2
37 26 2
37 28 1
37 29 1
37 31 1
37 32 2
37 33 2
37 34 2
37 35 2
38 2 2
38 3 2
38 5 2
38 8 2
38 10 1
38 15 2
38 16 2
38 17 1
38 18 1
38 20 2
38 25 2
38 26 1
38 28 2
38 30 1
38 31 1
38 32 2
38 33 1
38 36 1
38 37 2
39 0 2
39 2 2
39 4 2
39 5 1
39 6 2
39 7 2
39 8 1
39 10 2
39 13 1
39 14 2
39 16 1
39 18 1
39 20 2
39 22 1
39 23 2
39 24 2
39 25 2
39 26 1
39 27 1
39 28 1
39 34 1
39 37 2
40 2 1
40 3 2
40 4 1
40 7 1
40 9 2
40 10 1
40 12 2
40 14 1
40 17 1
40 23 2
40 25 2
40 27 2
40 30 1
40 32 2
40 34 2
40 35 1
40 36 2
40 39 2
41 1 2
41 6 1
41 7 2
41 8 1
41 9 1
41 12 2
41 14 1
41 15 2
41 16 2
41 18 2
41 21 1
41 22 1
41 26 2
41 27 2
41 28 2
41 29 1
41 31 2
41 32 1
41 34 2
41 35 2
42 3 2
42 6 2
42 9 2
42 10 2
42 13 2
42 14 1
42 16 1
42 17 1
42 19 2
42 20 1
42 22 1
42 23 1
42 24 2
42 25 1
42 28 2
42 30 2
42 32 2
42 35 1
42 36 1
42 38 2
42 39 2
42 40 2
42 41 2
43 0 2
43 3 2
43 4 2
43 7 1
43 9 2
43 17 2
43 19 2
43 20 1
43 21 2
43 22 1
43 27 2
43 31 1
43 38 2
43 39 1
43 42 2
44 7 2
44 8 2
44 9 1
44 10 2
44 11 1
44 14 2
44 17 1
44 19 1
44 22 1
44 23 1
44 29 1
44 35 2
44 36 2
44 37 1
44 38 2
44 40 2
44 42 1
45 0 2
45 1 1
45 3 2
45 5 1
45 6 1
45 11 2
45 12 1
45 15 1
45 16 1
45 18 1
45 19 2
45 21 2
45 23 2
45 24 2
45 25 2
45 29 1
45 31 1
45 32 1
45 33 1
45 34 2
45 38 2
45 39 2
45 40 2
45 41 2
46 0 1
46 3 1
46 5 2
46 7 2
46 9 2
46 11 1
46 14 2
46 16 2
46 18 1
46 19 1
46 20 2
46 25 1
46 26 2
46 27 2
46 33 1
46 35 1
46 38 1
46 39 1
46 42 1
46 45 1
47 1 2
47 3 2
47 4 2
47 5 1
47 7 1
47 10 2
47 12 2
47 18 2
47 19 1
47 21 1
47 23 2
47 26 2
47 29 1
47 30 2
47 31 2
47 32 2
47 33 1
47 34 1
47 37 1
47 38 2
47 39 1
47 43 1
47 45 2
48 1 1
48 2 1
48 3 1
48 4 1
48 6 1
48 7 2
48 9 2
48 11 2
48 15 1
48 17 1
48 18 2
48 19 2
48 21 2
48 22 2
48 24 1
48 30 2
48 31 2
48 32 1
48 36 1
48 37 1
48 39 2
48 40 1
48 41 1
48 45 2
48 47 1
49 1 1
49 3 1
49 4 2
49 8 2
49 11 2
49 13 2
49 14 1
49 15 2
49 21 2
49 29 1
49 30 2
49 32 2
49 33 1
49 34 2
49 35 1
49 36 1
49 37 1
49 39 2
49 40 1
49 43 1
49 48 2
50 2 2
50 3 1
50 4 2
50 5 2
50 7 1
50 10 1
50 15 2
50 17 1
50 18 1
50 19 1
50 21 1
50 22 2
50 24 1
50 25 2
50 26 1
50 31 1
50 33 2
50 36 1
50 40 1
50 45 1
50 49 1
51 1 2
51 4 1
51 7 2
51 8 2
51 9 2
51 10 1
51 16 2
51 25 1
51 27 2
51 28 2
51 31 2
51 32 2
51 33 1
51 34 2
51 36 1
51 38 1
51 39 2
51 47 1
51 49 2
52 0 2
52 1 1
52 2 2
52 3 1
52 4 1
52 6 1
52 10 2
52 11 1
52 12 2
52 15 1
52 18 2
52 19 1
52 20 2
52 21 2
52 23 1
52 26 2
52 27 1
52 29 1
52 32 2
52 33 2
52 35 2
52 37 1
52 38 2
52 40 1
52 41 2
52 42 1
52 45 1
52 46 2
52 47 1
52 48 2
52 51 2
53 7 2
53 8 2
53 10 1
53 12 2
53 15 2
53 16 1
53 17 2
53 20 1
53 21 2
53 22 1
53 30 1
53 32 1
53 33 1
53 34 1
53 35 1
53 36 2
53 37 1
53 39 2
53 40 2
53 41 1
53 43 1
53 44 2
53 45 2
53 46 1
53 47 1
53 50 1
53 51 2
54 0 2
54 2 1
54 3 2
54 8 1
54 9 1
54 11 2
54 15 1
54 18 2
54 19 1
54 20 2
54 24 2
54 25 1
54 26 1
54 27 2
54 28 1
54 38 2
54 39 2
54 40 2
54 42 2
54 44 2
54 45 2
54 46 2
54 49 2
54 50 1
54 51 1
54 52 1
54 53 2
55 0 1
55 1 2
55 2 1
55 3 2
55 4 2
55 5 1
55 6 2
55 11 1
55 13 2
55 14 2
55 16 1
55 18 1
55 19 1
55 22 1
55 24 1
55 26 2
55 31 2
55 33 2
55 34 1
55 35 2
55 37 2
55 38 1
55 39 1
55 40 1
55 41 2
55 42 2
55 46 1
55 47 2
55 49 1
55 50 2
55 51 1
55 52 1
55 53 1
56 5 1
56 7 2
56 9 1
56 10 2
56 12 1
56 17 2
56 18 1
56 19 1
56 24 2
56 25 1
56 26 2
56 28 2
56 29 2
56 30 2
56 31 1
56 33 1
56 35 1
56 36 2
56 39 2
56 40 2
56 47 2
56 49 2
56 50 1
56 51 1
56 55 1
57 0 2
57 1 2
57 2 2
57 7 2
57 8 1
57 14 1
57 15 1
57 16 2
57 17 2
57 18 2
57 19 1
57 20 2
57 21 1
57 22 2
57 23 1
57 26 1
57 28 1
57 29 1
57 30 1
57 32 2
57 33 1
57 35 2
57 36 1
57 37 1
57 41 1
57 44 2
57 45 2
57 48 2
57 49 1
57 50 2
57 52 2
57 53 1
57 54 2
57 56 2
58 4 2
58 8 1
58 9 2
58 10 1
58 16 2
58 17 2
58 19 1
58 20 2
58 21 1
58 24 2
58 26 1
58 27 1
58 29 2
58 32 2
58 33 1
58 39 1
58 40 1
58 41 2
58 43 2
58 47 1
58 48 1
58 50 1
58 52 2
58 53 2
58 54 1
58 56 2
58 57 1
59 2 2
59 4 1
59 6 1
59 7 1
59 10 1
59 13 1
59 15 1
59 17 1
59 18 2
59 22 1
59 23 2
59 25 2
59 27 1
59 29 2
59 31 2
59 32 2
59 33 1
59 34 1
59 35 1
59 36 1
59 38 1
59 39 1
59 40 2
59 41 2
59 44 2
59 46 2
59 49 2
59 50 2
59 54 1
59 56 2
59 57 1
